100
1000
200
200
199
199
197
196
196
195
195
194
194
193
193
193
193
192
192
192
191
191
191
190
189
188
188
188
188
187
187
187
186
186
185
185
185
183
183
182
180
180
178
176
174
174
173
173
173
173
173
172
171
171
171
170
170
169
169
168
168
168
168
167
167
166
166
166
165
164
164
163
163
163
163
162
161
161
160
160
160
159
159
158
158
157
157
156
155
154
154
154
153
153
153
153
152
152
151
151
150
150
